(set-logic QF_UF)
(declare-fun A0 () Bool)
(declare-fun A1 () Bool)
(declare-fun A2 () Bool)
(declare-fun A3 () Bool)
(declare-fun A4 () Bool)
(declare-fun A5 () Bool)
(declare-fun A6 () Bool)
(declare-fun A7 () Bool)
(declare-fun A8 () Bool)
(declare-fun A9 () Bool)
(declare-fun A10 () Bool)
(declare-fun A11 () Bool)
(declare-fun A12 () Bool)
(declare-fun A13 () Bool)
(declare-fun A14 () Bool)
(declare-fun A15 () Bool)
(declare-fun A16 () Bool)
(declare-fun A17 () Bool)
(declare-fun A18 () Bool)
(declare-fun A19 () Bool)
(declare-fun A20 () Bool)
(declare-fun A21 () Bool)
(declare-fun A22 () Bool)
(declare-fun A24 () Bool)
(assert (let ((.def_0 (not A8))) (let ((.def_1 (or .def_0 A18))) (let ((.def_2 (not .def_1))) (let ((.def_3 (or A18 A16))) (let ((.def_4 (not .def_3))) (let ((.def_5 (or .def_4 .def_2))) (let ((.def_6 (not A1))) (let ((.def_7 (not A15))) (let ((.def_8 (and .def_7 .def_6))) (let ((.def_9 (and A24 A3))) (let ((.def_10 (not .def_9))) (let ((.def_11 (or .def_10 .def_8))) (let ((.def_12 (= .def_11 .def_5))) (let ((.def_13 (not .def_12))) (let ((.def_14 (not A21))) (let ((.def_15 (not A7))) (let ((.def_16 (or .def_15 .def_14))) (let ((.def_17 (not A18))) (let ((.def_18 (not A2))) (let ((.def_19 (or .def_18 .def_17))) (let ((.def_20 (and .def_19 .def_16))) (let ((.def_21 (and A22 A5))) (let ((.def_22 (or A10 A19))) (let ((.def_23 (or .def_22 .def_21))) (let ((.def_24 (not .def_23))) (let ((.def_25 (or .def_24 .def_20))) (let ((.def_26 (not .def_25))) (let ((.def_27 (and .def_26 .def_13))) (let ((.def_28 (not A4))) (let ((.def_29 (and A24 .def_28))) (let ((.def_30 (not .def_29))) (let ((.def_31 (not A20))) (let ((.def_32 (not A6))) (let ((.def_33 (or .def_32 .def_31))) (let ((.def_34 (not .def_33))) (let ((.def_35 (and .def_34 .def_30))) (let ((.def_36 (not .def_35))) (let ((.def_37 (not A0))) (let ((.def_38 (or A11 .def_37))) (let ((.def_39 (not .def_38))) (let ((.def_40 (not A16))) (let ((.def_41 (and .def_40 A18))) (let ((.def_42 (not .def_41))) (let ((.def_43 (and .def_42 .def_39))) (let ((.def_44 (and .def_43 .def_36))) (let ((.def_45 (not A14))) (let ((.def_46 (or .def_45 .def_32))) (let ((.def_47 (not .def_46))) (let ((.def_48 (or A2 A4))) (let ((.def_49 (not .def_48))) (let ((.def_50 (and .def_49 .def_47))) (let ((.def_51 (not .def_50))) (let ((.def_52 (not A13))) (let ((.def_53 (= A13 .def_52))) (let ((.def_54 (not A17))) (let ((.def_55 (or .def_54 .def_45))) (let ((.def_56 (and .def_55 .def_53))) (let ((.def_57 (or .def_56 .def_51))) (let ((.def_58 (not .def_57))) (let ((.def_59 (and .def_58 .def_44))) (let ((.def_60 (and .def_59 .def_27))) (let ((.def_61 (not .def_60))) (let ((.def_62 (not A5))) (let ((.def_63 (or .def_62 A9))) (let ((.def_64 (not .def_63))) (let ((.def_65 (not A12))) (let ((.def_66 (or .def_65 A7))) (let ((.def_67 (not .def_66))) (let ((.def_68 (or .def_67 .def_64))) (let ((.def_69 (and A10 A20))) (let ((.def_70 (and A5 .def_6))) (let ((.def_71 (or .def_70 .def_69))) (let ((.def_72 (not .def_71))) (let ((.def_73 (and .def_72 .def_68))) (let ((.def_74 (not .def_73))) (let ((.def_75 (not A19))) (let ((.def_76 (and .def_75 .def_40))) (let ((.def_77 (not .def_76))) (let ((.def_78 (or A11 A8))) (let ((.def_79 (not .def_78))) (let ((.def_80 (or .def_79 .def_77))) (let ((.def_81 (and .def_32 A17))) (let ((.def_82 (not .def_81))) (let ((.def_83 (or .def_54 A16))) (let ((.def_84 (not .def_83))) (let ((.def_85 (or .def_84 .def_82))) (let ((.def_86 (not .def_85))) (let ((.def_87 (or .def_86 .def_80))) (let ((.def_88 (not .def_87))) (let ((.def_89 (= .def_88 .def_74))) (let ((.def_90 (and A20 .def_14))) (let ((.def_91 (not A11))) (let ((.def_92 (and A5 .def_91))) (let ((.def_93 (not .def_92))) (let ((.def_94 (or .def_93 .def_90))) (let ((.def_95 (not .def_94))) (let ((.def_96 (or .def_6 A16))) (let ((.def_97 (not A3))) (let ((.def_98 (and .def_97 A4))) (let ((.def_99 (not .def_98))) (let ((.def_100 (= .def_99 .def_96))) (let ((.def_101 (or .def_100 .def_95))) (let ((.def_102 (or .def_32 .def_54))) (let ((.def_103 (not .def_102))) (let ((.def_104 (or A17 .def_32))) (let ((.def_105 (not .def_104))) (let ((.def_106 (and .def_105 .def_103))) (let ((.def_107 (and A22 A1))) (let ((.def_108 (not .def_107))) (let ((.def_109 (or .def_31 A22))) (let ((.def_110 (= .def_109 .def_108))) (let ((.def_111 (not .def_110))) (let ((.def_112 (or .def_111 .def_106))) (let ((.def_113 (not .def_112))) (let ((.def_114 (or .def_113 .def_101))) (let ((.def_115 (not .def_114))) (let ((.def_116 (or .def_115 .def_89))) (let ((.def_117 (or .def_116 .def_61))) .def_117)))))))))))))))))))))))))))))))))))))))))))))))))))))))))))))))))))))))))))))))))))))))))))))))))))))))))))))))))))))))
(check-sat)
